language Essence 1.3

letting bot_end be [138, 32, 122, 109, 110, 148, 82, 86, 124, 14, 47, 24, 17, 59, 61, 74, 128, 136; int(1..18)]
letting bot_start be [139, 22, 93, 74, 63, 55, 147, 136, 57, 148, 82, 36, 89, 127, 45, 118, 28, 140; int(1..18)]
letting bots be 18
letting buffer_col be 2
letting buffer_row be 2
letting corridor_size be 1
letting n_shelves_col be 4
letting n_shelves_row be 3
letting shelf_col_size be 2
letting shelf_row_size be 1
